cliques=[{9,6,5,1,10,3,12,7,2,11,8,0,4},{9,6,5,1,10,3,12,7,2,11,8,0,4},{167,180,13,104,206,232,65,246,141,154,92,45,25,2,218,79},{9,6,5,1,10,3,12,7,2,11,8,0,4},{9,6,5,1,10,3,12,7,2,11,8,0,4},{5,17,251,222,47,157,69,197,183,80,169,131,235,29},{9,6,5,1,10,3,12,7,2,11,8,0,4},{9,6,5,1,10,3,12,7,2,11,8,0,4},{9,6,5,1,10,3,12,7,2,11,8,0,4},{9,120,211,199,159,49,254,20,58,186,84,173,109},{9,6,5,1,10,3,12,7,2,11,8,0,4},{51,202,228,60,136,100,240,88,258,111,149,75,42,11,176,124},{76,43,112,137,101,61,241,190,12,162,35,214,150,177},{167,180,13,104,206,232,65,246,141,154,92,45,25,2,218,79},{15,13,16,17,14,19,22,20,21,18},{15,13,16,17,14,19,22,20,21,18},{15,13,16,17,14,19,22,20,21,18},{5,17,251,222,47,157,69,197,183,80,169,131,235,29},{81,224,39,71,170,107,144,184,96,31,18,7},{15,13,16,17,14,19,22,20,21,18},{9,120,211,199,159,49,254,20,58,186,84,173,109},{15,13,16,17,14,19,22,20,21,18},{15,13,16,17,14,19,22,20,21,18},{152,193,23,204,90,78,139,179,231,0,53,244,165},{1,245,127,217,153,205,194,24,64,114,166,91,140},{167,180,13,104,206,232,65,246,141,154,92,45,25,2,218,79},{195,105,155,220,67,26,46,142,248,37,182},{28,23,27,34,26,32,31,24,35,25,30,29,33},{28,23,27,34,26,32,31,24,35,25,30,29,33},{5,17,251,222,47,157,69,197,183,80,169,131,235,29},{6,95,117,143,252,223,70,106,56,30},{81,224,39,71,170,107,144,184,96,31,18,7},{28,23,27,34,26,32,31,24,35,25,30,29,33},{108,145,57,237,198,253,72,158,40,172,8,83,225,33,119,210},{28,23,27,34,26,32,31,24,35,25,30,29,33},{76,43,112,137,101,61,241,190,12,162,35,214,150,177},{233,54,115,93,14,207,181,219,66,128,36,247},{195,105,155,220,67,26,46,142,248,37,182},{15,129,27,196,94,38,3,55,249,208},{81,224,39,71,170,107,144,184,96,31,18,7},{108,145,57,237,198,253,72,158,40,172,8,83,225,33,119,210},{200,85,133,121,73,255,226,187,238,174,146,41},{51,202,228,60,136,100,240,88,258,111,149,75,42,11,176,124},{76,43,112,137,101,61,241,190,12,162,35,214,150,177},{203,191,242,62,125,151,215,163,102,89,229,44},{167,180,13,104,206,232,65,246,141,154,92,45,25,2,218,79},{195,105,155,220,67,26,46,142,248,37,182},{5,17,251,222,47,157,69,197,183,80,169,131,235,29},{82,19,185,97,48,118,32,171,132,236},{9,120,211,199,159,49,254,20,58,186,84,173,109},{110,50,122,34,188,22,147,213,87,74},{51,202,228,60,136,100,240,88,258,111,149,75,42,11,176,124},{52,103,243,178,77,138,164,216,230,192,63,126,113},{60,52,62,59,54,57,61,55,58,56,53},{60,52,62,59,54,57,61,55,58,56,53},{60,52,62,59,54,57,61,55,58,56,53},{60,52,62,59,54,57,61,55,58,56,53},{60,52,62,59,54,57,61,55,58,56,53},{9,120,211,199,159,49,254,20,58,186,84,173,109},{60,52,62,59,54,57,61,55,58,56,53},{51,202,228,60,136,100,240,88,258,111,149,75,42,11,176,124},{76,43,112,137,101,61,241,190,12,162,35,214,150,177},{203,191,242,62,125,151,215,163,102,89,229,44},{76,71,67,65,69,70,73,72,75,66,74,63,64,68},{76,71,67,65,69,70,73,72,75,66,74,63,64,68},{167,180,13,104,206,232,65,246,141,154,92,45,25,2,218,79},{76,71,67,65,69,70,73,72,75,66,74,63,64,68},{76,71,67,65,69,70,73,72,75,66,74,63,64,68},{76,71,67,65,69,70,73,72,75,66,74,63,64,68},{5,17,251,222,47,157,69,197,183,80,169,131,235,29},{76,71,67,65,69,70,73,72,75,66,74,63,64,68},{76,71,67,65,69,70,73,72,75,66,74,63,64,68},{76,71,67,65,69,70,73,72,75,66,74,63,64,68},{76,71,67,65,69,70,73,72,75,66,74,63,64,68},{76,71,67,65,69,70,73,72,75,66,74,63,64,68},{51,202,228,60,136,100,240,88,258,111,149,75,42,11,176,124},{76,43,112,137,101,61,241,190,12,162,35,214,150,177},{52,103,243,178,77,138,164,216,230,192,63,126,113},{82,81,77,88,85,78,89,87,80,84,86,83,79},{167,180,13,104,206,232,65,246,141,154,92,45,25,2,218,79},{5,17,251,222,47,157,69,197,183,80,169,131,235,29},{82,81,77,88,85,78,89,87,80,84,86,83,79},{82,81,77,88,85,78,89,87,80,84,86,83,79},{82,81,77,88,85,78,89,87,80,84,86,83,79},{9,120,211,199,159,49,254,20,58,186,84,173,109},{82,81,77,88,85,78,89,87,80,84,86,83,79},{82,81,77,88,85,78,89,87,80,84,86,83,79},{82,81,77,88,85,78,89,87,80,84,86,83,79},{51,202,228,60,136,100,240,88,258,111,149,75,42,11,176,124},{203,191,242,62,125,151,215,163,102,89,229,44},{95,100,93,102,90,94,101,98,97,92,96,99,91},{95,100,93,102,90,94,101,98,97,92,96,99,91},{167,180,13,104,206,232,65,246,141,154,92,45,25,2,218,79},{95,100,93,102,90,94,101,98,97,92,96,99,91},{95,100,93,102,90,94,101,98,97,92,96,99,91},{95,100,93,102,90,94,101,98,97,92,96,99,91},{95,100,93,102,90,94,101,98,97,92,96,99,91},{95,100,93,102,90,94,101,98,97,92,96,99,91},{95,100,93,102,90,94,101,98,97,92,96,99,91},{95,100,93,102,90,94,101,98,97,92,96,99,91},{51,202,228,60,136,100,240,88,258,111,149,75,42,11,176,124},{95,100,93,102,90,94,101,98,97,92,96,99,91},{203,191,242,62,125,151,215,163,102,89,229,44},{52,103,243,178,77,138,164,216,230,192,63,126,113},{167,180,13,104,206,232,65,246,141,154,92,45,25,2,218,79},{195,105,155,220,67,26,46,142,248,37,182},{6,95,117,143,252,223,70,106,56,30},{81,224,39,71,170,107,144,184,96,31,18,7},{108,145,57,237,198,253,72,158,40,172,8,83,225,33,119,210},{9,120,211,199,159,49,254,20,58,186,84,173,109},{108,105,104,103,110,112,107,111,106,109},{51,202,228,60,136,100,240,88,258,111,149,75,42,11,176,124},{76,43,112,137,101,61,241,190,12,162,35,214,150,177},{117,120,125,123,115,122,121,118,114,116,113,119,124},{117,120,125,123,115,122,121,118,114,116,113,119,124},{117,120,125,123,115,122,121,118,114,116,113,119,124},{117,120,125,123,115,122,121,118,114,116,113,119,124},{117,120,125,123,115,122,121,118,114,116,113,119,124},{117,120,125,123,115,122,121,118,114,116,113,119,124},{117,120,125,123,115,122,121,118,114,116,113,119,124},{9,120,211,199,159,49,254,20,58,186,84,173,109},{117,120,125,123,115,122,121,118,114,116,113,119,124},{117,120,125,123,115,122,121,118,114,116,113,119,124},{117,120,125,123,115,122,121,118,114,116,113,119,124},{51,202,228,60,136,100,240,88,258,111,149,75,42,11,176,124},{203,191,242,62,125,151,215,163,102,89,229,44},{52,103,243,178,77,138,164,216,230,192,63,126,113},{1,245,127,217,153,205,194,24,64,114,166,91,140},{233,54,115,93,14,207,181,219,66,128,36,247},{136,129,127,137,133,130,134,128,131,132,135,126},{136,129,127,137,133,130,134,128,131,132,135,126},{5,17,251,222,47,157,69,197,183,80,169,131,235,29},{136,129,127,137,133,130,134,128,131,132,135,126},{136,129,127,137,133,130,134,128,131,132,135,126},{212,175,256,239,98,160,227,21,201,134,86},{136,129,127,137,133,130,134,128,131,132,135,126},{51,202,228,60,136,100,240,88,258,111,149,75,42,11,176,124},{76,43,112,137,101,61,241,190,12,162,35,214,150,177},{151,143,145,141,138,147,144,142,139,149,148,150,146,140},{151,143,145,141,138,147,144,142,139,149,148,150,146,140},{151,143,145,141,138,147,144,142,139,149,148,150,146,140},{167,180,13,104,206,232,65,246,141,154,92,45,25,2,218,79},{151,143,145,141,138,147,144,142,139,149,148,150,146,140},{151,143,145,141,138,147,144,142,139,149,148,150,146,140},{151,143,145,141,138,147,144,142,139,149,148,150,146,140},{151,143,145,141,138,147,144,142,139,149,148,150,146,140},{151,143,145,141,138,147,144,142,139,149,148,150,146,140},{151,143,145,141,138,147,144,142,139,149,148,150,146,140},{151,143,145,141,138,147,144,142,139,149,148,150,146,140},{51,202,228,60,136,100,240,88,258,111,149,75,42,11,176,124},{76,43,112,137,101,61,241,190,12,162,35,214,150,177},{203,191,242,62,125,151,215,163,102,89,229,44},{152,155,157,163,159,153,156,154,161,160,162,158},{152,155,157,163,159,153,156,154,161,160,162,158},{167,180,13,104,206,232,65,246,141,154,92,45,25,2,218,79},{152,155,157,163,159,153,156,154,161,160,162,158},{152,155,157,163,159,153,156,154,161,160,162,158},{5,17,251,222,47,157,69,197,183,80,169,131,235,29},{152,155,157,163,159,153,156,154,161,160,162,158},{9,120,211,199,159,49,254,20,58,186,84,173,109},{152,155,157,163,159,153,156,154,161,160,162,158},{152,155,157,163,159,153,156,154,161,160,162,158},{76,43,112,137,101,61,241,190,12,162,35,214,150,177},{203,191,242,62,125,151,215,163,102,89,229,44},{52,103,243,178,77,138,164,216,230,192,63,126,113},{152,193,23,204,90,78,139,179,231,0,53,244,165},{1,245,127,217,153,205,194,24,64,114,166,91,140},{167,180,13,104,206,232,65,246,141,154,92,45,25,2,218,79},{167,175,170,164,169,171,168,174,166,173,172,176,177,165},{5,17,251,222,47,157,69,197,183,80,169,131,235,29},{81,224,39,71,170,107,144,184,96,31,18,7},{167,175,170,164,169,171,168,174,166,173,172,176,177,165},{108,145,57,237,198,253,72,158,40,172,8,83,225,33,119,210},{9,120,211,199,159,49,254,20,58,186,84,173,109},{167,175,170,164,169,171,168,174,166,173,172,176,177,165},{167,175,170,164,169,171,168,174,166,173,172,176,177,165},{51,202,228,60,136,100,240,88,258,111,149,75,42,11,176,124},{76,43,112,137,101,61,241,190,12,162,35,214,150,177},{180,191,178,188,190,185,183,181,186,184,179,182,187,189},{180,191,178,188,190,185,183,181,186,184,179,182,187,189},{167,180,13,104,206,232,65,246,141,154,92,45,25,2,218,79},{180,191,178,188,190,185,183,181,186,184,179,182,187,189},{180,191,178,188,190,185,183,181,186,184,179,182,187,189},{5,17,251,222,47,157,69,197,183,80,169,131,235,29},{180,191,178,188,190,185,183,181,186,184,179,182,187,189},{180,191,178,188,190,185,183,181,186,184,179,182,187,189},{180,191,178,188,190,185,183,181,186,184,179,182,187,189},{180,191,178,188,190,185,183,181,186,184,179,182,187,189},{180,191,178,188,190,185,183,181,186,184,179,182,187,189},{180,191,178,188,190,185,183,181,186,184,179,182,187,189},{180,191,178,188,190,185,183,181,186,184,179,182,187,189},{203,191,242,62,125,151,215,163,102,89,229,44},{195,203,202,193,200,199,196,197,194,198,201,192},{195,203,202,193,200,199,196,197,194,198,201,192},{195,203,202,193,200,199,196,197,194,198,201,192},{195,203,202,193,200,199,196,197,194,198,201,192},{195,203,202,193,200,199,196,197,194,198,201,192},{5,17,251,222,47,157,69,197,183,80,169,131,235,29},{195,203,202,193,200,199,196,197,194,198,201,192},{195,203,202,193,200,199,196,197,194,198,201,192},{195,203,202,193,200,199,196,197,194,198,201,192},{195,203,202,193,200,199,196,197,194,198,201,192},{51,202,228,60,136,100,240,88,258,111,149,75,42,11,176,124},{203,191,242,62,125,151,215,163,102,89,229,44},{212,211,215,206,209,204,205,207,213,214,208,210},{212,211,215,206,209,204,205,207,213,214,208,210},{167,180,13,104,206,232,65,246,141,154,92,45,25,2,218,79},{212,211,215,206,209,204,205,207,213,214,208,210},{212,211,215,206,209,204,205,207,213,214,208,210},{212,211,215,206,209,204,205,207,213,214,208,210},{212,211,215,206,209,204,205,207,213,214,208,210},{9,120,211,199,159,49,254,20,58,186,84,173,109},{212,211,215,206,209,204,205,207,213,214,208,210},{212,211,215,206,209,204,205,207,213,214,208,210},{76,43,112,137,101,61,241,190,12,162,35,214,150,177},{203,191,242,62,125,151,215,163,102,89,229,44},{228,224,220,222,223,217,216,226,219,227,229,221,225,218},{228,224,220,222,223,217,216,226,219,227,229,221,225,218},{167,180,13,104,206,232,65,246,141,154,92,45,25,2,218,79},{228,224,220,222,223,217,216,226,219,227,229,221,225,218},{228,224,220,222,223,217,216,226,219,227,229,221,225,218},{228,224,220,222,223,217,216,226,219,227,229,221,225,218},{5,17,251,222,47,157,69,197,183,80,169,131,235,29},{228,224,220,222,223,217,216,226,219,227,229,221,225,218},{228,224,220,222,223,217,216,226,219,227,229,221,225,218},{228,224,220,222,223,217,216,226,219,227,229,221,225,218},{228,224,220,222,223,217,216,226,219,227,229,221,225,218},{228,224,220,222,223,217,216,226,219,227,229,221,225,218},{51,202,228,60,136,100,240,88,258,111,149,75,42,11,176,124},{203,191,242,62,125,151,215,163,102,89,229,44},{233,242,240,239,232,241,234,237,230,231,238,235,236},{233,242,240,239,232,241,234,237,230,231,238,235,236},{167,180,13,104,206,232,65,246,141,154,92,45,25,2,218,79},{233,242,240,239,232,241,234,237,230,231,238,235,236},{233,242,240,239,232,241,234,237,230,231,238,235,236},{5,17,251,222,47,157,69,197,183,80,169,131,235,29},{233,242,240,239,232,241,234,237,230,231,238,235,236},{233,242,240,239,232,241,234,237,230,231,238,235,236},{233,242,240,239,232,241,234,237,230,231,238,235,236},{233,242,240,239,232,241,234,237,230,231,238,235,236},{51,202,228,60,136,100,240,88,258,111,149,75,42,11,176,124},{76,43,112,137,101,61,241,190,12,162,35,214,150,177},{203,191,242,62,125,151,215,163,102,89,229,44},{251,256,243,252,245,246,257,254,258,255,248,253,250,249,244,247},{251,256,243,252,245,246,257,254,258,255,248,253,250,249,244,247},{251,256,243,252,245,246,257,254,258,255,248,253,250,249,244,247},{167,180,13,104,206,232,65,246,141,154,92,45,25,2,218,79},{251,256,243,252,245,246,257,254,258,255,248,253,250,249,244,247},{251,256,243,252,245,246,257,254,258,255,248,253,250,249,244,247},{251,256,243,252,245,246,257,254,258,255,248,253,250,249,244,247},{251,256,243,252,245,246,257,254,258,255,248,253,250,249,244,247},{251,256,243,252,245,246,257,254,258,255,248,253,250,249,244,247},{251,256,243,252,245,246,257,254,258,255,248,253,250,249,244,247},{251,256,243,252,245,246,257,254,258,255,248,253,250,249,244,247},{251,256,243,252,245,246,257,254,258,255,248,253,250,249,244,247},{251,256,243,252,245,246,257,254,258,255,248,253,250,249,244,247},{251,256,243,252,245,246,257,254,258,255,248,253,250,249,244,247},{251,256,243,252,245,246,257,254,258,255,248,253,250,249,244,247},{51,202,228,60,136,100,240,88,258,111,149,75,42,11,176,124}];
nr_cliques=259;
